(declare-fun bvlambda_33_ () (_ BitVec 11))
(declare-fun a160 () (Array (_ BitVec 1) (_ BitVec 10)))
(assert
(let (($e36 (_ bv1022 10)))
(let (($e290 ((_ extract 9 0) bvlambda_33_)))
(let (($e297 (   extract      bvlambda_33_)))
(let (($e298 (store a160 true               $e36 )))
(let (($e299 (store $e298 $e297 $e290)))
(let (($e300 (select $e299 true       )))
             (   extract      $e300)
                                                                                                                                                                                                                                                                                                                                                                                                                                                                                                                                                                                                                                                                                                                                                                                                                                                                                                                                                                                                                                                                                                                                                                                                                                                                                                                                                                                                                                                                                                                                                                                                                                                                                                                                                                                                                                                                                                                                                                                                                                                                                                                                                            ))))      )                                                                                                                                                                                                )                                   )
